NAME 
ROWS
 N  OBJ
 G  R0      
 G  R1      
 G  R2      
 G  R3      
 G  R4      
 G  R5      
 G  R6      
 G  R7      
 G  R8      
 G  R9      
 G  R10     
 G  R11     
 G  R12     
 G  R13     
 G  R14     
 G  R15     
 G  R16     
 G  R17     
 G  R18     
 G  R19     
 G  R20     
 G  R21     
 G  R22     
 G  R23     
 G  R24     
 G  R25     
 G  R26     
 G  R27     
 G  R28     
 G  R29     
 G  R30     
 G  R31     
 G  R32     
 G  R33     
 G  R34     
 G  R35     
COLUMNS
    x0        OBJ       1
    x0        R0        1
    x0        R13       1
    x0        R14       1
    x0        R16       1
    x0        R17       1
    x0        R22       1
    x0        R23       1
    x0        R25       1
    x0        R26       1
    x0        R28       1
    x0        R29       1
    x0        R30       1
    x0        R33       1
    x1        OBJ       1
    x1        R1        1
    x1        R12       1
    x1        R14       1
    x1        R15       1
    x1        R17       1
    x1        R21       1
    x1        R23       1
    x1        R24       1
    x1        R26       1
    x1        R27       1
    x1        R29       1
    x1        R31       1
    x1        R34       1
    x2        OBJ       1
    x2        R2        1
    x2        R12       1
    x2        R13       1
    x2        R15       1
    x2        R16       1
    x2        R21       1
    x2        R22       1
    x2        R24       1
    x2        R25       1
    x2        R27       1
    x2        R28       1
    x2        R32       1
    x2        R35       1
    x3        OBJ       1
    x3        R3        1
    x3        R10       1
    x3        R11       1
    x3        R16       1
    x3        R17       1
    x3        R19       1
    x3        R20       1
    x3        R25       1
    x3        R26       1
    x3        R27       1
    x3        R31       1
    x3        R32       1
    x3        R33       1
    x4        OBJ       1
    x4        R4        1
    x4        R9        1
    x4        R11       1
    x4        R15       1
    x4        R17       1
    x4        R18       1
    x4        R20       1
    x4        R24       1
    x4        R26       1
    x4        R28       1
    x4        R30       1
    x4        R32       1
    x4        R34       1
    x5        OBJ       1
    x5        R5        1
    x5        R9        1
    x5        R10       1
    x5        R15       1
    x5        R16       1
    x5        R18       1
    x5        R19       1
    x5        R24       1
    x5        R25       1
    x5        R29       1
    x5        R30       1
    x5        R31       1
    x5        R35       1
    x6        OBJ       1
    x6        R6        1
    x6        R10       1
    x6        R11       1
    x6        R13       1
    x6        R14       1
    x6        R19       1
    x6        R20       1
    x6        R22       1
    x6        R23       1
    x6        R27       1
    x6        R30       1
    x6        R34       1
    x6        R35       1
    x7        OBJ       1
    x7        R7        1
    x7        R9        1
    x7        R11       1
    x7        R12       1
    x7        R14       1
    x7        R18       1
    x7        R20       1
    x7        R21       1
    x7        R23       1
    x7        R28       1
    x7        R31       1
    x7        R33       1
    x7        R35       1
    x8        OBJ       1
    x8        R8        1
    x8        R9        1
    x8        R10       1
    x8        R12       1
    x8        R13       1
    x8        R18       1
    x8        R19       1
    x8        R21       1
    x8        R22       1
    x8        R29       1
    x8        R32       1
    x8        R33       1
    x8        R34       1
    x9        OBJ       1
    x9        R4        1
    x9        R5        1
    x9        R7        1
    x9        R8        1
    x9        R9        1
    x9        R19       1
    x9        R20       1
    x9        R21       1
    x9        R24       1
    x9        R31       1
    x9        R32       1
    x9        R34       1
    x9        R35       1
    x10       OBJ       1
    x10       R3        1
    x10       R5        1
    x10       R6        1
    x10       R8        1
    x10       R10       1
    x10       R18       1
    x10       R20       1
    x10       R22       1
    x10       R25       1
    x10       R30       1
    x10       R32       1
    x10       R33       1
    x10       R35       1
    x11       OBJ       1
    x11       R3        1
    x11       R4        1
    x11       R6        1
    x11       R7        1
    x11       R11       1
    x11       R18       1
    x11       R19       1
    x11       R23       1
    x11       R26       1
    x11       R30       1
    x11       R31       1
    x11       R33       1
    x11       R34       1
    x12       OBJ       1
    x12       R1        1
    x12       R2        1
    x12       R7        1
    x12       R8        1
    x12       R12       1
    x12       R18       1
    x12       R22       1
    x12       R23       1
    x12       R24       1
    x12       R28       1
    x12       R29       1
    x12       R34       1
    x12       R35       1
    x13       OBJ       1
    x13       R0        1
    x13       R2        1
    x13       R6        1
    x13       R8        1
    x13       R13       1
    x13       R19       1
    x13       R21       1
    x13       R23       1
    x13       R25       1
    x13       R27       1
    x13       R29       1
    x13       R33       1
    x13       R35       1
    x14       OBJ       1
    x14       R0        1
    x14       R1        1
    x14       R6        1
    x14       R7        1
    x14       R14       1
    x14       R20       1
    x14       R21       1
    x14       R22       1
    x14       R26       1
    x14       R27       1
    x14       R28       1
    x14       R33       1
    x14       R34       1
    x15       OBJ       1
    x15       R1        1
    x15       R2        1
    x15       R4        1
    x15       R5        1
    x15       R15       1
    x15       R18       1
    x15       R21       1
    x15       R25       1
    x15       R26       1
    x15       R28       1
    x15       R29       1
    x15       R31       1
    x15       R32       1
    x16       OBJ       1
    x16       R0        1
    x16       R2        1
    x16       R3        1
    x16       R5        1
    x16       R16       1
    x16       R19       1
    x16       R22       1
    x16       R24       1
    x16       R26       1
    x16       R27       1
    x16       R29       1
    x16       R30       1
    x16       R32       1
    x17       OBJ       1
    x17       R0        1
    x17       R1        1
    x17       R3        1
    x17       R4        1
    x17       R17       1
    x17       R20       1
    x17       R23       1
    x17       R24       1
    x17       R25       1
    x17       R27       1
    x17       R28       1
    x17       R30       1
    x17       R31       1
    x18       OBJ       1
    x18       R4        1
    x18       R5        1
    x18       R7        1
    x18       R8        1
    x18       R10       1
    x18       R11       1
    x18       R12       1
    x18       R15       1
    x18       R18       1
    x18       R31       1
    x18       R32       1
    x18       R34       1
    x18       R35       1
    x19       OBJ       1
    x19       R3        1
    x19       R5        1
    x19       R6        1
    x19       R8        1
    x19       R9        1
    x19       R11       1
    x19       R13       1
    x19       R16       1
    x19       R19       1
    x19       R30       1
    x19       R32       1
    x19       R33       1
    x19       R35       1
    x20       OBJ       1
    x20       R3        1
    x20       R4        1
    x20       R6        1
    x20       R7        1
    x20       R9        1
    x20       R10       1
    x20       R14       1
    x20       R17       1
    x20       R20       1
    x20       R30       1
    x20       R31       1
    x20       R33       1
    x20       R34       1
    x21       OBJ       1
    x21       R1        1
    x21       R2        1
    x21       R7        1
    x21       R8        1
    x21       R9        1
    x21       R13       1
    x21       R14       1
    x21       R15       1
    x21       R21       1
    x21       R28       1
    x21       R29       1
    x21       R34       1
    x21       R35       1
    x22       OBJ       1
    x22       R0        1
    x22       R2        1
    x22       R6        1
    x22       R8        1
    x22       R10       1
    x22       R12       1
    x22       R14       1
    x22       R16       1
    x22       R22       1
    x22       R27       1
    x22       R29       1
    x22       R33       1
    x22       R35       1
    x23       OBJ       1
    x23       R0        1
    x23       R1        1
    x23       R6        1
    x23       R7        1
    x23       R11       1
    x23       R12       1
    x23       R13       1
    x23       R17       1
    x23       R23       1
    x23       R27       1
    x23       R28       1
    x23       R33       1
    x23       R34       1
    x24       OBJ       1
    x24       R1        1
    x24       R2        1
    x24       R4        1
    x24       R5        1
    x24       R9        1
    x24       R12       1
    x24       R16       1
    x24       R17       1
    x24       R24       1
    x24       R28       1
    x24       R29       1
    x24       R31       1
    x24       R32       1
    x25       OBJ       1
    x25       R0        1
    x25       R2        1
    x25       R3        1
    x25       R5        1
    x25       R10       1
    x25       R13       1
    x25       R15       1
    x25       R17       1
    x25       R25       1
    x25       R27       1
    x25       R29       1
    x25       R30       1
    x25       R32       1
    x26       OBJ       1
    x26       R0        1
    x26       R1        1
    x26       R3        1
    x26       R4        1
    x26       R11       1
    x26       R14       1
    x26       R15       1
    x26       R16       1
    x26       R26       1
    x26       R27       1
    x26       R28       1
    x26       R30       1
    x26       R31       1
    x27       OBJ       1
    x27       R1        1
    x27       R2        1
    x27       R3        1
    x27       R6        1
    x27       R13       1
    x27       R14       1
    x27       R16       1
    x27       R17       1
    x27       R22       1
    x27       R23       1
    x27       R25       1
    x27       R26       1
    x27       R27       1
    x28       OBJ       1
    x28       R0        1
    x28       R2        1
    x28       R4        1
    x28       R7        1
    x28       R12       1
    x28       R14       1
    x28       R15       1
    x28       R17       1
    x28       R21       1
    x28       R23       1
    x28       R24       1
    x28       R26       1
    x28       R28       1
    x29       OBJ       1
    x29       R0        1
    x29       R1        1
    x29       R5        1
    x29       R8        1
    x29       R12       1
    x29       R13       1
    x29       R15       1
    x29       R16       1
    x29       R21       1
    x29       R22       1
    x29       R24       1
    x29       R25       1
    x29       R29       1
    x30       OBJ       1
    x30       R0        1
    x30       R4        1
    x30       R5        1
    x30       R6        1
    x30       R10       1
    x30       R11       1
    x30       R16       1
    x30       R17       1
    x30       R19       1
    x30       R20       1
    x30       R25       1
    x30       R26       1
    x30       R30       1
    x31       OBJ       1
    x31       R1        1
    x31       R3        1
    x31       R5        1
    x31       R7        1
    x31       R9        1
    x31       R11       1
    x31       R15       1
    x31       R17       1
    x31       R18       1
    x31       R20       1
    x31       R24       1
    x31       R26       1
    x31       R31       1
    x32       OBJ       1
    x32       R2        1
    x32       R3        1
    x32       R4        1
    x32       R8        1
    x32       R9        1
    x32       R10       1
    x32       R15       1
    x32       R16       1
    x32       R18       1
    x32       R19       1
    x32       R24       1
    x32       R25       1
    x32       R32       1
    x33       OBJ       1
    x33       R0        1
    x33       R3        1
    x33       R7        1
    x33       R8        1
    x33       R10       1
    x33       R11       1
    x33       R13       1
    x33       R14       1
    x33       R19       1
    x33       R20       1
    x33       R22       1
    x33       R23       1
    x33       R33       1
    x34       OBJ       1
    x34       R1        1
    x34       R4        1
    x34       R6        1
    x34       R8        1
    x34       R9        1
    x34       R11       1
    x34       R12       1
    x34       R14       1
    x34       R18       1
    x34       R20       1
    x34       R21       1
    x34       R23       1
    x34       R34       1
    x35       OBJ       1
    x35       R2        1
    x35       R5        1
    x35       R6        1
    x35       R7        1
    x35       R9        1
    x35       R10       1
    x35       R12       1
    x35       R13       1
    x35       R18       1
    x35       R19       1
    x35       R21       1
    x35       R22       1
    x35       R35       1
RHS
    RHS1      R0        1
    RHS1      R1        1
    RHS1      R2        1
    RHS1      R3        1
    RHS1      R4        1
    RHS1      R5        1
    RHS1      R6        1
    RHS1      R7        1
    RHS1      R8        1
    RHS1      R9        1
    RHS1      R10       1
    RHS1      R11       1
    RHS1      R12       1
    RHS1      R13       1
    RHS1      R14       1
    RHS1      R15       1
    RHS1      R16       1
    RHS1      R17       1
    RHS1      R18       1
    RHS1      R19       1
    RHS1      R20       1
    RHS1      R21       1
    RHS1      R22       1
    RHS1      R23       1
    RHS1      R24       1
    RHS1      R25       1
    RHS1      R26       1
    RHS1      R27       1
    RHS1      R28       1
    RHS1      R29       1
    RHS1      R30       1
    RHS1      R31       1
    RHS1      R32       1
    RHS1      R33       1
    RHS1      R34       1
    RHS1      R35       1
BOUNDS
 UP BND1      x0        1
 UP BND1      x1        1
 UP BND1      x2        1
 UP BND1      x3        1
 UP BND1      x4        1
 UP BND1      x5        1
 UP BND1      x6        1
 UP BND1      x7        1
 UP BND1      x8        1
 UP BND1      x9        1
 UP BND1      x10       1
 UP BND1      x11       1
 UP BND1      x12       1
 UP BND1      x13       1
 UP BND1      x14       1
 UP BND1      x15       1
 UP BND1      x16       1
 UP BND1      x17       1
 UP BND1      x18       1
 UP BND1      x19       1
 UP BND1      x20       1
 UP BND1      x21       1
 UP BND1      x22       1
 UP BND1      x23       1
 UP BND1      x24       1
 UP BND1      x25       1
 UP BND1      x26       1
 UP BND1      x27       1
 UP BND1      x28       1
 UP BND1      x29       1
 UP BND1      x30       1
 UP BND1      x31       1
 UP BND1      x32       1
 UP BND1      x33       1
 UP BND1      x34       1
 UP BND1      x35       1
ENDATA
